n_nurses =  15;
sched_period =  14;
n_shifts =  3;
nurses_coverage = array2d(period, shifts, [
5, 2, 3,
0, 2, 1,
1, 4, 4,
4, 4, 2,
3, 3, 1,
2, 1, 1,
3, 4, 1,
4, 4, 1,
5, 2, 3,
3, 1, 3,
0, 2, 1,
1, 1, 0,
1, 1, 0,
2, 2, 1]);
